p edge 50 50
colours 3
e 30 51
e 14 29
e 14 43
e 4 46
e 3 32
e 30 31
e 32 43
e 3 37
e 2 31
e 8 24
e 8 25
e 21 38
e 5 22
e 15 42
e 20 42
e 15 18
e 10 29
e 12 44
e 18 41
e 13 22
e 1 40
e 18 20
e 3 25
e 17 40
e 26 42
e 15 27
e 34 51
e 4 9
e 39 50
e 10 24
e 3 50
e 14 21
e 6 8
e 22 33
e 11 30
e 4 12
e 1 44
e 5 43
e 40 48
e 7 29
e 28 44
e 10 48
e 3 18
e 13 46
e 17 27
e 5 6
e 16 25
e 23 46
e 24 50
e 6 46
